(declare-const a Real)
(declare-const b Real)
(declare-const c Real)
(declare-const d Real)
(assert (= (+ a b c d) 1))
(assert (>= (+ a (* -1 b)) 0))
(assert (>= (+ b (* -1 c)) 0))
(assert (>= (+ c (* -1 d)) 0))
(assert (> d 0))
(assert (not (<= (+ -1 (* (pow a a) (pow c c) (pow d d) (pow (* (pow (+ 8 b) -1) (+ 8 (pow b 2))) (+ 8 b)) (+ a (* 2 b) (* 3 c) (* 4 d)))) 0)))
(check-sat)
(get-model)
(exit)